; benchmark generated from python API
(set-info :status unknown)
(declare-datatypes ((RealState 0)) (((RMk1 (rval1 Real)) (RMk2 (rval2 Real)))))
 (assert
 (forall ((|v17:0| Real) )(forall ((|v16:1| Real) )(forall ((|v15:2| Real) )(forall ((|v14:3| Real) )(forall ((|v13:4| Real) )(forall ((|v12:5| Real) )(exists ((|v11:6_st| RealState) (val!9090 Real) )(exists ((|v10:7_st| RealState) (val!9091 Real) )(exists ((|v9:8_st| RealState) (val!9092 Real) )(exists ((|v8:9_st| RealState) (val!9093 Real) )(exists ((|v7:10_st| RealState) (val!9094 Real) )(exists ((|v6:11_st| RealState) (val!9095 Real) )(forall ((|v5:12| Real) )(forall ((|v4:13| Real) )(forall ((|v3:14| Real) )(forall ((|v2:15| Real) )(forall ((|v1:16| Real) )(forall ((|v0:17| Real) )(let ((?x2755 (* 20.0 |v13:4|)))
 (let ((?x5584 (- 10.0)))
 (let ((?x6354 (* ?x5584 |v4:13|)))
 (let ((?x713 (rval2 |v7:10_st|)))
 (let ((?x8700 (* 18.0 ?x713)))
 (let ((?x7356 (+ (+ (+ (* 8.0 |v1:16|) (* (- 11.0) (rval2 |v11:6_st|))) (* 5.0 |v4:13|)) ?x8700)))
 (let ((?x1925 (- 15.0)))
 (let ((?x5263 (- 11.0)))
 (let ((?x2907 (* ?x5263 |v3:14|)))
 (let ((?x1177 (* 12.0 |v13:4|)))
 (let ((?x2181 (* 18.0 |v2:15|)))
 (let ((?x818 (+ (+ (+ (* (- 20.0) |v17:0|) (* (- 9.0) |v14:3|)) (* 18.0 |v14:3|)) ?x2181)))
 (let (($x3105 (or (<= (+ (+ (+ ?x818 ?x1177) ?x2907) (* (- 9.0) (rval2 |v10:7_st|))) ?x1925) (<= (+ (+ (+ ?x7356 ?x6354) (* (- 19.0) |v14:3|)) ?x2755) 10.0))))
 (let ((?x1676 (- 8.0)))
 (let ((?x5845 (- 1.0)))
 (let ((?x4770 (* ?x5845 |v3:14|)))
 (let ((?x3030 (* 12.0 |v3:14|)))
 (let ((?x4110 (+ (+ (* (- 16.0) (rval2 |v10:7_st|)) (* (- 3.0) |v12:5|)) (* 12.0 (rval2 |v9:8_st|)))))
 (let ((?x1838 (- 7.0)))
 (let ((?x4205 (* 5.0 |v3:14|)))
 (let ((?x6658 (* ?x5584 |v17:0|)))
 (let ((?x8351 (rval2 |v9:8_st|)))
 (let ((?x2398 (* 10.0 ?x8351)))
 (let ((?x4710 (+ (+ (+ (+ (* 14.0 |v5:12|) (* (- 20.0) |v14:3|)) (* ?x5845 |v16:1|)) ?x2398) ?x4205)))
 (let (($x55 (or (<= (+ (+ ?x4710 ?x6658) ?x4205) ?x1838) (<= (+ (+ (+ (+ ?x4110 (* (- 16.0) |v15:2|)) ?x3030) |v14:3|) ?x4770) ?x1676))))
 (let ((?x328 (* 13.0 |v12:5|)))
 (let ((?x6723 (* 15.0 |v12:5|)))
 (let ((?x8161 (rval2 |v6:11_st|)))
 (let ((?x6123 (* ?x5584 ?x8161)))
 (let ((?x3251 (+ (+ (+ (* 3.0 (rval2 |v10:7_st|)) (* (- 9.0) |v16:1|)) (* 16.0 |v17:0|)) ?x6123)))
 (let ((?x6475 (* 13.0 |v16:1|)))
 (let ((?x8976 (* 4.0 ?x713)))
 (let ((?x1566 (+ (+ (+ (+ ?x8700 (* ?x5845 |v2:15|)) (rval2 |v11:6_st|)) (* 12.0 |v4:13|)) ?x8161)))
 (let (($x6518 (or (<= (+ (+ ?x1566 ?x8976) ?x6475) 7.0) (<= (+ (+ (+ ?x3251 ?x6723) ?x328) (* (- 16.0) ?x8351)) ?x1925))))
 (let ((?x2719 (* 6.0 |v0:17|)))
 (let ((?x7816 (rval2 |v8:9_st|)))
 (let ((?x3056 (* 3.0 ?x7816)))
 (let ((?x210 (+ (+ (+ (+ (* 10.0 |v5:12|) |v1:16|) (* 4.0 |v12:5|)) (* 6.0 |v16:1|)) ?x3056)))
 (let ((?x5278 (* 7.0 |v3:14|)))
 (let ((?x5094 (* 9.0 |v15:2|)))
 (let ((?x1134 (* 17.0 |v3:14|)))
 (let ((?x3266 (* 9.0 ?x8351)))
 (let ((?x6934 (+ (+ (+ (* 11.0 |v14:3|) (* 15.0 |v1:16|)) (* (- 16.0) ?x7816)) ?x3266)))
 (let (($x5758 (or (<= (+ (+ (+ ?x6934 ?x1134) ?x5094) ?x5278) 5.0) (<= (+ (+ ?x210 ?x2719) |v15:2|) 14.0))))
 (let ((?x2797 (- 20.0)))
 (let ((?x3247 (* ?x2797 ?x8351)))
 (let ((?x4907 (- 16.0)))
 (let ((?x1664 (* ?x4907 ?x7816)))
 (let ((?x1446 (+ (+ (+ (* 7.0 |v4:13|) (* ?x1925 |v5:12|)) (* (- 14.0) |v15:2|)) (* 7.0 ?x8161))))
 (let (($x815 (and (<= (+ (+ (+ ?x1446 ?x1664) ?x3247) (* (- 12.0) (rval2 |v10:7_st|))) 7.0) (or (and $x5758 $x6518) (and $x55 $x3105)))))
 (let ((?x382 (- 12.0)))
 (let ((?x6428 (* 12.0 |v2:15|)))
 (let ((?x6747 (* ?x1838 |v3:14|)))
 (let ((?x8743 (- 9.0)))
 (let ((?x5783 (* ?x8743 |v15:2|)))
 (let ((?x7166 (+ (+ (+ (+ (* 4.0 |v2:15|) (* (- 3.0) ?x8161)) (* ?x5845 ?x7816)) ?x5783) (* ?x5845 (rval2 |v10:7_st|)))))
 (let ((?x8277 (* 14.0 |v17:0|)))
 (let ((?x323 (- 5.0)))
 (let ((?x2490 (* ?x323 |v14:3|)))
 (let ((?x3637 (* 16.0 |v2:15|)))
 (let ((?x2621 (rval2 |v10:7_st|)))
 (let ((?x1705 (* ?x323 ?x2621)))
 (let ((?x4813 (+ (+ (+ (+ (* ?x1838 ?x8351) (* (- 2.0) |v0:17|)) (* 11.0 |v5:12|)) ?x1705) ?x3637)))
 (let (($x3391 (and (<= (+ (+ ?x4813 ?x2490) ?x8277) 13.0) (<= (+ (+ ?x7166 ?x6747) ?x6428) ?x382))))
 (let ((?x854 (* ?x5845 |v0:17|)))
 (let ((?x4805 (- 13.0)))
 (let ((?x9109 (* ?x4805 |v3:14|)))
 (let ((?x191 (* 17.0 |v0:17|)))
 (let ((?x4885 (rval2 |v11:6_st|)))
 (let ((?x1457 (- 6.0)))
 (let ((?x4977 (* ?x1457 ?x4885)))
 (let ((?x838 (+ (+ (+ (+ (* 2.0 ?x8351) (* ?x1676 |v5:12|)) (* (- 18.0) ?x4885)) ?x4977) ?x191)))
 (let ((?x5617 (* 10.0 |v1:16|)))
 (let ((?x5437 (* ?x1457 |v17:0|)))
 (let ((?x4693 (* 8.0 ?x7816)))
 (let ((?x7234 (+ (+ (+ (+ (+ (* 8.0 |v17:0|) (* 8.0 |v14:3|)) ?x4977) ?x3637) ?x4693) ?x5437)))
 (let (($x7464 (and (and (<= (+ ?x7234 ?x5617) ?x5263) (<= (+ (+ ?x838 ?x9109) ?x854) 18.0)) $x3391)))
 (let ((?x2634 (* 19.0 |v16:1|)))
 (let ((?x3432 (* ?x323 |v5:12|)))
 (let ((?x141 (* 20.0 ?x4885)))
 (let ((?x1162 (+ (+ (+ (+ (* 16.0 |v12:5|) (* 8.0 |v16:1|)) (* ?x4805 |v1:16|)) ?x141) (* ?x4805 |v15:2|))))
 (let ((?x2682 (- 19.0)))
 (let ((?x4491 (* 4.0 |v3:14|)))
 (let ((?x2924 (* 10.0 |v12:5|)))
 (let ((?x2764 (* 7.0 |v1:16|)))
 (let ((?x4174 (+ (+ (+ (+ (* 2.0 |v17:0|) (* 2.0 |v2:15|)) (* 15.0 ?x713)) ?x2764) (* 8.0 ?x713))))
 (let (($x2125 (and (<= (+ (+ ?x4174 ?x2924) ?x4491) ?x2682) (<= (+ (+ ?x1162 ?x3432) ?x2634) 19.0))))
 (let ((?x883 (* 16.0 |v4:13|)))
 (let ((?x8850 (* 9.0 |v12:5|)))
 (let ((?x5938 (+ (+ (+ (+ ?x2755 (* 10.0 |v14:3|)) (* 5.0 |v0:17|)) (* 13.0 |v0:17|)) (* ?x382 |v14:3|))))
 (let ((?x120 (* ?x1457 |v3:14|)))
 (let ((?x1504 (* 0.0 |v13:4|)))
 (let ((?x2525 (- 2.0)))
 (let ((?x1200 (* ?x2525 |v4:13|)))
 (let ((?x3988 (+ (+ (+ (+ (* ?x5584 ?x713) (* ?x2682 ?x713)) (* 7.0 |v13:4|)) ?x1200) ?x1504)))
 (let (($x3175 (and (<= (+ (+ ?x3988 ?x120) ?x6428) 15.0) (<= (+ (+ ?x5938 ?x8850) ?x883) 11.0))))
 (let ((?x634 (- 17.0)))
 (let ((?x2537 (* 9.0 |v3:14|)))
 (let ((?x425 (* ?x1838 |v4:13|)))
 (let ((?x2186 (* 16.0 ?x2621)))
 (let ((?x3652 (+ (+ (+ (+ (* 0.0 |v17:0|) (* 6.0 |v14:3|)) (* ?x2797 |v13:4|)) ?x2186) ?x425)))
 (let ((?x4990 (* ?x5584 |v16:1|)))
 (let ((?x195 (* 10.0 |v0:17|)))
 (let ((?x186 (* ?x4907 |v3:14|)))
 (let ((?x5455 (* 0.0 ?x8351)))
 (let ((?x2334 (+ (+ (+ (+ (* ?x323 |v4:13|) (* (- 3.0) ?x8161)) (* ?x323 ?x713)) ?x5455) ?x186)))
 (let (($x2776 (or (<= (+ (+ ?x2334 ?x195) ?x4990) 20.0) (<= (+ (+ ?x3652 ?x2537) (* ?x382 |v12:5|)) ?x634))))
 (let ((?x3949 (* 4.0 |v0:17|)))
 (let ((?x7320 (* ?x2525 |v13:4|)))
 (let ((?x3299 (* 6.0 |v13:4|)))
 (let ((?x4138 (+ (+ (+ (+ ?x6723 (* 3.0 |v16:1|)) (* ?x1676 |v13:4|)) (* ?x2525 |v0:17|)) ?x3299)))
 (let ((?x9155 (* ?x5263 ?x713)))
 (let ((?x1860 (* ?x8743 |v16:1|)))
 (let ((?x1140 (+ (+ (+ (+ (* ?x4907 |v16:1|) (* (- 18.0) ?x713)) ?x2398) (* 9.0 ?x4885)) (* (- 18.0) |v15:2|))))
 (let (($x559 (or (<= (+ (+ ?x1140 ?x1860) ?x9155) 0.0) (<= (+ (+ ?x4138 ?x7320) ?x3949) ?x2797))))
 (let ((?x133 (* 18.0 ?x7816)))
 (let ((?x379 (* 16.0 |v13:4|)))
 (let ((?x4605 (* ?x1676 |v12:5|)))
 (let ((?x3401 (+ (+ (+ (+ (* 5.0 |v2:15|) (* 6.0 |v2:15|)) (* 7.0 |v13:4|)) ?x379) ?x4605)))
 (let ((?x272 (* 19.0 |v3:14|)))
 (let ((?x2179 (* ?x1925 |v0:17|)))
 (let ((?x8666 (* 12.0 ?x2621)))
 (let ((?x749 (- 14.0)))
 (let ((?x2254 (* ?x749 |v17:0|)))
 (let ((?x8090 (+ (+ (+ (+ (* 0.0 ?x8161) (* 3.0 |v12:5|)) (* ?x5584 ?x4885)) ?x2254) ?x8666)))
 (let (($x4888 (or (<= (+ (+ ?x8090 ?x2179) ?x272) ?x2525) (<= (+ (+ ?x3401 ?x379) ?x133) 12.0))))
 (let ((?x2788 (* ?x323 ?x7816)))
 (let ((?x3768 (* 17.0 |v1:16|)))
 (let ((?x5438 (* 20.0 |v16:1|)))
 (let ((?x2030 (+ (+ (+ (+ ?x2634 (* 2.0 |v14:3|)) (* ?x5263 |v0:17|)) (* ?x2682 ?x7816)) ?x5438)))
 (let (($x3813 (and (and (and (<= (+ (+ ?x2030 ?x3768) ?x2788) ?x1457) $x4888) (or $x559 $x2776)) (and (or $x3175 $x2125) $x7464))))
 (let ((?x3673 (* 9.0 |v4:13|)))
 (let ((?x8147 (* ?x2682 |v0:17|)))
 (let ((?x252 (+ (+ (+ (* (- 3.0) ?x713) (* 5.0 ?x713)) (* 2.0 |v3:14|)) ?x8147)))
 (let ((?x247 (* ?x2525 |v14:3|)))
 (let ((?x2882 (+ (+ (+ (+ ?x2621 (* ?x5263 |v0:17|)) (* 5.0 |v15:2|)) (* 15.0 |v17:0|)) ?x247)))
 (let ((?x4403 (* 8.0 |v4:13|)))
 (let ((?x6397 (* ?x5845 ?x4885)))
 (let ((?x1050 (* ?x4907 |v16:1|)))
 (let ((?x8209 (+ (+ (+ (+ (* ?x749 |v12:5|) (* ?x5845 |v17:0|)) (* (- 18.0) ?x713)) ?x1050) ?x6397)))
 (let (($x9031 (or (<= (+ (+ ?x8209 ?x4403) |v15:2|) ?x749) (<= (+ (+ ?x2882 ?x1177) (* (- 18.0) ?x7816)) ?x2797))))
 (let ((?x4594 (- 18.0)))
 (let ((?x127 (* ?x4594 |v4:13|)))
 (let ((?x1422 (* 19.0 ?x713)))
 (let ((?x1872 (* 2.0 |v4:13|)))
 (let ((?x5499 (* 17.0 ?x2621)))
 (let ((?x1729 (+ (+ (+ (+ (* ?x2682 |v5:12|) (* 11.0 ?x4885)) (* ?x1676 |v0:17|)) ?x5499) ?x1872)))
 (let ((?x3707 (* ?x749 |v0:17|)))
 (let ((?x5690 (* 16.0 |v5:12|)))
 (let ((?x6917 (+ (+ (+ (+ ?x5438 (* ?x1457 |v2:15|)) (* 16.0 |v0:17|)) (* ?x5263 |v0:17|)) ?x5690)))
 (let (($x3943 (or (<= (+ (+ ?x6917 ?x3707) (* ?x382 |v17:0|)) ?x634) (<= (+ (+ ?x1729 ?x1422) ?x127) ?x2682))))
 (let ((?x5915 (* ?x5263 |v4:13|)))
 (let ((?x6478 (* ?x5263 |v12:5|)))
 (let ((?x2400 (+ (+ (+ (+ (* (- 4.0) ?x8161) ?x4605) (* 7.0 |v16:1|)) (* ?x1925 |v15:2|)) ?x6478)))
 (let ((?x9070 (* ?x5263 ?x2621)))
 (let ((?x4392 (* 17.0 |v4:13|)))
 (let ((?x662 (+ (+ (+ (+ (+ ?x1705 (* 11.0 |v4:13|)) ?x5278) (* ?x5845 ?x7816)) ?x4392) ?x9070)))
 (let (($x4305 (and (<= (+ ?x662 (* 2.0 ?x2621)) 4.0) (<= (+ (+ ?x2400 ?x195) ?x5915) 8.0))))
 (let ((?x2416 (* 3.0 |v15:2|)))
 (let ((?x8868 (* 13.0 |v17:0|)))
 (let ((?x7953 (* 17.0 |v14:3|)))
 (let ((?x8702 (+ (+ (+ (+ (* ?x382 ?x4885) (* 3.0 |v17:0|)) |v2:15|) (* 17.0 |v12:5|)) ?x7953)))
 (let ((?x557 (* ?x749 |v5:12|)))
 (let ((?x513 (* ?x2682 ?x713)))
 (let ((?x8136 (+ (+ (+ (+ (* 10.0 |v2:15|) ?x8850) (* 0.0 |v14:3|)) (* ?x4594 ?x8161)) |v16:1|)))
 (let (($x1130 (and (<= (+ (+ ?x8136 ?x513) ?x557) 17.0) (<= (+ (+ ?x8702 ?x8868) ?x2416) 17.0))))
 (let ((?x5793 (* ?x382 |v13:4|)))
 (let ((?x3871 (* ?x2682 ?x7816)))
 (let ((?x4203 (* ?x1457 |v16:1|)))
 (let ((?x6272 (+ (+ (+ (+ (* 13.0 |v15:2|) (* ?x1676 |v14:3|)) (* ?x749 ?x713)) ?x4203) ?x3871)))
 (let ((?x8543 (* ?x323 ?x713)))
 (let ((?x4769 (+ (+ (+ (+ (+ ?x127 ?x2788) (* 19.0 ?x4885)) (* ?x8743 |v4:13|)) |v16:1|) ?x8543)))
 (let ((?x2025 (- 3.0)))
 (let ((?x2580 (* 12.0 |v12:5|)))
 (let ((?x3075 (* ?x2025 |v12:5|)))
 (let ((?x7727 (+ (+ (+ (+ (* 17.0 |v12:5|) ?x883) (* ?x749 |v14:3|)) (* 17.0 |v2:15|)) (* ?x4805 |v14:3|))))
 (let (($x8292 (or (<= (+ (+ ?x7727 ?x3075) ?x2580) ?x2025) (<= (+ ?x4769 (* 12.0 ?x7816)) ?x1838))))
 (let ((?x1481 (* ?x2025 |v1:16|)))
 (let ((?x6457 (* 12.0 |v4:13|)))
 (let ((?x2591 (* 19.0 |v13:4|)))
 (let ((?x2744 (* 4.0 |v2:15|)))
 (let ((?x7077 (+ (+ (+ (+ (* 4.0 ?x8351) (* 9.0 |v17:0|)) (* 13.0 |v5:12|)) ?x2744) ?x2591)))
 (let ((?x8806 (* 15.0 |v14:3|)))
 (let ((?x2378 (* 16.0 ?x7816)))
 (let ((?x5446 (+ (+ (+ (+ ?x2537 (* ?x4805 ?x7816)) (* 5.0 ?x7816)) (* 13.0 ?x8351)) ?x2378)))
 (let (($x3585 (and (<= (+ (+ ?x5446 (* ?x5263 ?x8161)) ?x8806) ?x4805) (<= (+ (+ ?x7077 ?x6457) ?x1481) 7.0))))
 (let (($x2007 (or (or (or $x3585 $x8292) (<= (+ (+ ?x6272 (* ?x2797 ?x713)) ?x5793) ?x4594)) (or (or $x1130 $x4305) (or $x3943 $x9031)))))
 (let (($x4440 (and (and $x2007 (<= (+ (+ (+ ?x252 ?x3247) ?x3673) ?x8850) 5.0)) (and $x3813 $x815))))
 (let ((?x2791 (* 19.0 ?x4885)))
 (let ((?x5325 (* 4.0 |v14:3|)))
 (let ((?x7365 (* ?x4805 ?x4885)))
 (let ((?x7153 (+ (+ (+ (+ (* ?x1838 |v17:0|) (* ?x1676 |v1:16|)) (* ?x1925 |v16:1|)) ?x7365) ?x5325)))
 (let ((?x5992 (+ (+ (+ (+ (+ ?x2537 (* ?x8743 |v0:17|)) ?x6658) ?x6457) (* ?x634 |v17:0|)) ?x5793)))
 (let (($x6814 (and (<= (+ ?x5992 (* 5.0 ?x8161)) 17.0) (<= (+ (+ ?x7153 ?x2791) ?x5094) ?x1838))))
 (let ((?x5170 (* 18.0 ?x8351)))
 (let ((?x4887 (* 19.0 |v1:16|)))
 (let ((?x1338 (+ (+ (+ (+ (* 0.0 |v12:5|) ?x127) (* 12.0 |v0:17|)) (* 8.0 |v14:3|)) ?x4887)))
 (let ((?x8022 (* ?x1925 |v1:16|)))
 (let ((?x6039 (* ?x2025 |v3:14|)))
 (let ((?x7740 (* ?x2797 ?x8161)))
 (let ((?x1574 (+ (+ (+ (* 20.0 |v3:14|) (* ?x382 |v0:17|)) (* ?x4805 ?x7816)) (* ?x1925 |v12:5|))))
 (let (($x7530 (and (<= (+ (+ (+ ?x1574 ?x7740) ?x6039) ?x8022) ?x4907) (<= (+ (+ ?x1338 ?x5170) ?x133) ?x1457))))
 (let ((?x4036 (* ?x749 ?x4885)))
 (let ((?x2873 (+ (+ (+ (+ ?x6457 (* ?x1925 ?x8161)) (* (- 4.0) |v1:16|)) ?x4977) (* ?x1838 |v16:1|))))
 (let ((?x1979 (* ?x749 ?x713)))
 (let ((?x5204 (+ (+ (+ (+ (+ ?x854 (* 12.0 |v5:12|)) ?x4990) (* 19.0 ?x8161)) ?x1979) ?x5617)))
 (let (($x2207 (or (<= (+ ?x5204 ?x9109) ?x5263) (<= (+ (+ ?x2873 (* ?x1925 ?x7816)) ?x4036) 0.0))))
 (let ((?x2960 (* 0.0 |v3:14|)))
 (let ((?x3552 (* ?x382 |v5:12|)))
 (let ((?x7352 (* 3.0 |v1:16|)))
 (let ((?x2271 (+ (+ (+ (* 6.0 |v1:16|) (* ?x382 ?x8161)) (* 0.0 |v17:0|)) (* 2.0 ?x4885))))
 (let ((?x7866 (* ?x1925 |v15:2|)))
 (let ((?x868 (* 16.0 ?x713)))
 (let ((?x871 (+ (+ (+ (+ (+ ?x2960 ?x141) (* ?x2025 |v5:12|)) ?x4203) (* 15.0 |v16:1|)) ?x868)))
 (let (($x2388 (or (<= (+ ?x871 ?x7866) ?x4907) (<= (+ (+ (+ ?x2271 ?x7352) ?x3552) ?x2960) 17.0))))
 (let ((?x1420 (* ?x4805 |v13:4|)))
 (let ((?x6627 (* 17.0 |v2:15|)))
 (let ((?x1953 (+ (+ (+ (+ (+ ?x2764 |v1:16|) (* 15.0 |v3:14|)) (* ?x323 |v15:2|)) ?x6627) ?x1705)))
 (let ((?x480 (* ?x1925 ?x2621)))
 (let ((?x222 (* 13.0 ?x8351)))
 (let ((?x3725 (+ (+ (+ (+ (* 9.0 ?x7816) (* ?x4594 |v14:3|)) (* ?x5584 |v13:4|)) ?x222) ?x480)))
 (let (($x7455 (and (<= (+ (+ ?x3725 ?x4036) (* (- 4.0) |v17:0|)) ?x2682) (<= (+ ?x1953 ?x1420) ?x749))))
 (let ((?x776 (* 3.0 |v3:14|)))
 (let ((?x1622 (* 11.0 |v5:12|)))
 (let ((?x3142 (+ (+ (+ (* ?x2025 ?x8161) (* 7.0 |v2:15|)) (* 13.0 ?x4885)) (* 18.0 |v17:0|))))
 (let ((?x2449 (* 19.0 |v0:17|)))
 (let ((?x8371 (* ?x4805 ?x8161)))
 (let ((?x471 (+ (+ (+ (+ (+ ?x2791 (* 7.0 ?x7816)) (* 3.0 ?x713)) ?x3552) ?x8371) (* ?x1676 |v16:1|))))
 (let (($x7040 (or (<= (+ ?x471 ?x2449) ?x1838) (<= (+ (+ (+ ?x3142 ?x1622) ?x2254) ?x776) 16.0))))
 (let ((?x4836 (* ?x8743 |v4:13|)))
 (let ((?x3177 (* ?x2025 ?x7816)))
 (let ((?x1095 (* ?x1925 |v5:12|)))
 (let ((?x564 (+ (+ (+ (+ (+ (* 11.0 |v0:17|) ?x7740) (* ?x2797 |v14:3|)) ?x2416) ?x1095) ?x3177)))
 (let ((?x529 (* 19.0 |v4:13|)))
 (let ((?x6070 (+ (+ (+ (* 5.0 |v0:17|) (* 11.0 ?x8351)) (* ?x4594 ?x8351)) (* 14.0 ?x8351))))
 (let (($x6183 (and (<= (+ (+ (+ ?x6070 ?x1504) (* ?x5845 ?x8161)) ?x529) 2.0) (<= (+ ?x564 ?x4836) ?x5845))))
 (let ((?x5272 (+ (+ (+ (+ ?x3266 (* 0.0 |v17:0|)) (* 16.0 |v14:3|)) (* ?x2797 |v17:0|)) ?x8022)))
 (let ((?x6952 (* 13.0 ?x8161)))
 (let ((?x3215 (* ?x8743 ?x8161)))
 (let ((?x7883 (+ (+ (+ (+ (* ?x749 |v13:4|) (* ?x5263 |v0:17|)) (* 3.0 ?x8161)) ?x5455) ?x3215)))
 (let (($x3450 (and (<= (+ (+ ?x7883 ?x6952) (* ?x4907 |v14:3|)) ?x323) (<= (+ (+ ?x5272 (* 5.0 ?x4885)) (* 2.0 ?x8161)) ?x1838))))
 (let (($x5812 (or (and (or $x3450 $x6183) (and $x7040 $x7455)) (or (or $x2388 $x2207) (and $x7530 $x6814)))))
 (let ((?x8678 (* 9.0 |v17:0|)))
 (let ((?x400 (+ (+ (+ (+ (* 8.0 |v2:15|) (* 13.0 |v13:4|)) (* ?x5263 |v17:0|)) ?x8678) (* ?x749 ?x8161))))
 (let ((?x5608 (* ?x4907 |v12:5|)))
 (let ((?x7644 (* 3.0 |v12:5|)))
 (let ((?x7742 (+ (+ (+ (+ (+ ?x8147 (* 18.0 ?x2621)) ?x2755) (* 11.0 ?x8351)) ?x7644) (* 8.0 |v15:2|))))
 (let ((?x2377 (* ?x634 |v14:3|)))
 (let ((?x2191 (* 14.0 |v5:12|)))
 (let ((?x7300 (+ (+ (+ (+ (+ (* ?x323 |v4:13|) ?x2791) (* ?x323 |v17:0|)) ?x5438) ?x2191) ?x2377)))
 (let (($x2328 (or (<= (+ ?x7300 ?x2791) ?x2682) (or (<= (+ ?x7742 ?x5608) ?x1676) (<= (+ (+ ?x400 ?x247) ?x5690) ?x2525)))))
 (let ((?x7109 (- 4.0)))
 (let ((?x3021 (* ?x7109 |v1:16|)))
 (let ((?x1273 (* 11.0 |v3:14|)))
 (let ((?x2056 (* 8.0 |v0:17|)))
 (let ((?x3207 (+ (+ (+ (+ (* ?x382 ?x7816) (* ?x2525 ?x8351)) ?x195) (* 0.0 |v5:12|)) ?x2056)))
 (let ((?x2773 (* ?x5845 ?x8351)))
 (let ((?x6357 (* 16.0 |v12:5|)))
 (let ((?x2941 (+ (+ (+ (* ?x634 |v17:0|) (* ?x4805 |v2:15|)) (* 17.0 |v13:4|)) (* ?x2682 ?x8351))))
 (let (($x545 (and (<= (+ (+ (+ ?x2941 (* ?x749 ?x2621)) ?x6357) ?x2773) ?x8743) (<= (+ (+ ?x3207 ?x1273) ?x3021) 11.0))))
 (let ((?x1560 (+ (+ (+ (+ (+ (* ?x1457 |v15:2|) ?x8868) |v13:4|) ?x1705) (* 3.0 ?x8161)) (* 18.0 ?x8161))))
 (let ((?x71 (* ?x1676 |v0:17|)))
 (let ((?x178 (* 6.0 |v1:16|)))
 (let ((?x5464 (+ (+ (+ (+ ?x3056 (* 4.0 |v16:1|)) (* ?x7109 |v2:15|)) (* ?x2025 |v5:12|)) ?x178)))
 (let (($x6926 (or (<= (+ (+ ?x5464 ?x8976) ?x71) ?x2682) (<= (+ ?x1560 (* ?x2525 ?x8161)) 20.0))))
 (let ((?x5119 (* 15.0 |v4:13|)))
 (let ((?x3230 (* ?x4907 |v4:13|)))
 (let ((?x5621 (* ?x2682 |v2:15|)))
 (let ((?x6356 (+ (+ (+ (+ (* ?x634 |v17:0|) (* ?x4594 |v16:1|)) (* ?x7109 |v0:17|)) ?x5621) (* ?x382 |v16:1|))))
 (let ((?x1463 (* ?x5845 |v17:0|)))
 (let ((?x6793 (* 9.0 |v13:4|)))
 (let ((?x7343 (+ (+ (+ (+ (* 9.0 ?x4885) (* ?x749 |v12:5|)) ?x3266) (* 13.0 |v0:17|)) (* ?x1838 |v13:4|))))
 (let ((?x1837 (* 19.0 |v17:0|)))
 (let ((?x5557 (* ?x1838 |v1:16|)))
 (let ((?x6599 (+ (+ (+ (+ (* 18.0 |v14:3|) (* 6.0 ?x7816)) ?x4885) (* 14.0 ?x2621)) ?x195)))
 (let (($x4424 (or (<= (+ (+ ?x6599 ?x5557) ?x1837) ?x2797) (<= (+ (+ ?x7343 ?x6793) ?x1463) 17.0))))
 (let ((?x1376 (* 19.0 ?x8351)))
 (let ((?x7441 (* 2.0 |v12:5|)))
 (let ((?x2512 (* 12.0 |v0:17|)))
 (let ((?x5901 (+ (+ (+ (+ (* ?x2682 ?x8161) (* ?x634 |v5:12|)) ?x854) (* 9.0 |v0:17|)) ?x2512)))
 (let ((?x4143 (* 3.0 |v13:4|)))
 (let ((?x5413 (+ (+ (+ (+ (+ (* ?x634 ?x8161) |v0:17|) ?x2179) (* ?x4594 ?x2621)) ?x4143) (* ?x2797 |v16:1|))))
 (let (($x6737 (or (and (<= (+ ?x5413 ?x133) ?x1838) (<= (+ (+ ?x5901 ?x7441) ?x1376) 4.0)) $x4424)))
 (let (($x932 (and (or $x6737 (<= (+ (+ ?x6356 ?x3230) ?x5119) 7.0)) (or (and $x6926 $x545) $x2328))))
 (let ((?x2944 (* 7.0 |v13:4|)))
 (let ((?x7965 (* ?x4594 |v5:12|)))
 (let ((?x8624 (+ (+ (+ (+ (* ?x4594 |v16:1|) (* 0.0 |v1:16|)) (* 20.0 |v0:17|)) ?x4036) ?x7965)))
 (let ((?x4696 (* ?x382 ?x7816)))
 (let ((?x3541 (* 10.0 ?x713)))
 (let ((?x5208 (+ (+ (+ (+ (+ (* 5.0 |v16:1|) ?x1177) (* 13.0 |v4:13|)) ?x6123) ?x3541) ?x4696)))
 (let ((?x199 (* 16.0 |v16:1|)))
 (let ((?x2952 (+ (+ (+ (+ (+ (* 13.0 ?x4885) (* 11.0 |v0:17|)) ?x3299) ?x1463) ?x199) ?x4693)))
 (let ((?x488 (* ?x4594 ?x2621)))
 (let ((?x3856 (* ?x7109 |v3:14|)))
 (let ((?x5581 (+ (+ (+ (* ?x4907 |v0:17|) (* 2.0 |v0:17|)) (* 18.0 ?x4885)) (* ?x1676 |v17:0|))))
 (let ((?x1441 (* ?x2025 |v0:17|)))
 (let ((?x1841 (+ (+ (+ (+ (* 5.0 |v4:13|) ?x9155) (* 7.0 |v12:5|)) (* 2.0 |v3:14|)) ?x7953)))
 (let (($x2357 (and (<= (+ (+ ?x1841 ?x1441) ?x199) ?x5845) (<= (+ (+ (+ ?x5581 (* 8.0 ?x4885)) ?x3856) ?x488) 18.0))))
 (let (($x7308 (and $x2357 (or (<= (+ ?x2952 (* ?x2682 |v12:5|)) ?x2682) (<= (+ ?x5208 ?x1504) ?x382)))))
 (let ((?x3036 (* ?x323 |v13:4|)))
 (let ((?x5684 (+ (+ (+ (+ (* ?x5845 |v16:1|) ?x5690) (* 2.0 |v17:0|)) (* ?x5263 |v1:16|)) (* 6.0 ?x8161))))
 (let ((?x4653 (* ?x1838 |v2:15|)))
 (let ((?x7543 (* ?x5263 |v13:4|)))
 (let ((?x2883 (* 14.0 |v1:16|)))
 (let ((?x1511 (+ (+ (+ (+ ?x3673 (* 18.0 |v0:17|)) (* ?x5584 ?x8351)) (* 9.0 ?x7816)) ?x2883)))
 (let ((?x221 (+ (+ (+ (+ ?x3056 ?x3177) (* 16.0 |v3:14|)) (* ?x5845 |v15:2|)) (* ?x2525 |v17:0|))))
 (let (($x1353 (or (<= (+ (+ ?x221 (* 4.0 ?x2621)) (* ?x2525 ?x2621)) 5.0) (<= (+ (+ ?x1511 ?x7543) ?x4653) 19.0))))
 (let ((?x7951 (* ?x323 |v1:16|)))
 (let ((?x3924 (+ (+ (+ (+ (* 10.0 |v5:12|) (* ?x5845 |v12:5|)) (* ?x749 ?x7816)) ?x7951) ?x6354)))
 (let ((?x8730 (* 20.0 ?x8161)))
 (let ((?x5539 (+ (+ (+ (+ ?x2416 (* ?x8743 |v0:17|)) (* ?x5584 |v1:16|)) (* ?x382 ?x4885)) ?x2490)))
 (let (($x3796 (or (<= (+ (+ ?x5539 ?x8730) ?x4836) 17.0) (<= (+ (+ ?x3924 ?x9070) ?x713) ?x5263))))
 (let ((?x4169 (+ (+ (+ (+ (* 4.0 |v13:4|) (* 0.0 |v17:0|)) (* ?x634 |v4:13|)) ?x2181) ?x6793)))
 (let ((?x578 (+ (+ (+ (+ (* ?x4907 |v5:12|) (* 0.0 |v1:16|)) (* ?x382 |v2:15|)) ?x5793) (* ?x5845 ?x713))))
 (let (($x898 (or (<= (+ (+ ?x578 ?x6475) (* 10.0 ?x7816)) ?x4907) (<= (+ (+ ?x4169 ?x3075) ?x8371) 14.0))))
 (let (($x495 (and (and (or $x898 $x3796) (or $x1353 (<= (+ (+ ?x5684 ?x480) ?x3036) 7.0))) (or $x7308 (<= (+ (+ ?x8624 ?x1664) ?x2944) 11.0)))))
 (let ((?x5135 (+ (+ (+ (+ (+ (+ ?x2773 ?x2791) (* 4.0 ?x8161)) ?x6397) ?x3075) ?x3856) (* ?x2797 ?x7816))))
 (let ((?x700 (* ?x382 |v0:17|)))
 (let ((?x2857 (+ (+ (+ (+ (+ ?x8022 (* 20.0 ?x8351)) (* ?x2682 |v4:13|)) ?x5437) ?x6457) ?x700)))
 (let ((?x7812 (* ?x5845 ?x7816)))
 (let ((?x2746 (* ?x5845 |v1:16|)))
 (let ((?x8048 (+ (+ (+ (+ (* 17.0 ?x8351) (* 11.0 |v2:15|)) |v1:16|) (* 20.0 |v5:12|)) ?x2746)))
 (let ((?x8343 (+ (+ (+ (+ (+ ?x4605 ?x195) (* 16.0 |v1:16|)) |v17:0|) (* ?x2797 |v17:0|)) ?x2179)))
 (let (($x1315 (or (<= (+ ?x8343 (* ?x1838 ?x713)) 15.0) (<= (+ (+ ?x8048 ?x7365) ?x7812) 16.0))))
 (let ((?x7577 (* 2.0 ?x7816)))
 (let ((?x4310 (* 3.0 |v2:15|)))
 (let ((?x4495 (+ (+ (+ (+ (+ ?x8678 (* ?x5584 |v1:16|)) (* ?x1838 ?x8161)) ?x3637) ?x4310) ?x7577)))
 (let ((?x6712 (* 3.0 ?x713)))
 (let ((?x3287 (* 3.0 ?x8161)))
 (let ((?x2968 (* 20.0 ?x8351)))
 (let ((?x5620 (+ (+ (+ (+ (* 19.0 ?x2621) (* ?x5263 |v15:2|)) (* 15.0 |v16:1|)) ?x2719) ?x2968)))
 (let ((?x4500 (* 6.0 ?x4885)))
 (let ((?x2392 (* 3.0 |v17:0|)))
 (let ((?x6936 (+ (+ (+ (+ (+ ?x127 ?x1177) ?x6478) (* 15.0 ?x4885)) (* ?x2797 |v17:0|)) ?x2392)))
 (let ((?x4672 (* 12.0 |v16:1|)))
 (let ((?x2102 (* 18.0 |v0:17|)))
 (let ((?x586 (+ (+ (+ (+ |v1:16| (* 10.0 |v5:12|)) (* 20.0 |v4:13|)) ?x3030) ?x2102)))
 (let (($x5096 (and (or (<= (+ (+ ?x586 ?x1463) ?x4672) ?x1838) (<= (+ ?x6936 ?x4500) 17.0)) (or (<= (+ (+ ?x5620 ?x3287) ?x6712) 0.0) (<= (+ ?x4495 ?x5783) ?x7109)))))
 (let ((?x1744 (* ?x1676 |v14:3|)))
 (let ((?x4580 (+ (+ (+ (+ (+ ?x3215 ?x1273) (* ?x634 |v15:2|)) |v3:14|) (* 3.0 |v0:17|)) ?x2377)))
 (let ((?x5240 (* ?x5584 ?x8351)))
 (let ((?x6301 (+ (+ (+ (+ ?x4143 ?x5608) (* 6.0 |v4:13|)) (* 5.0 |v0:17|)) (* 12.0 ?x4885))))
 (let ((?x6023 (* 14.0 ?x4885)))
 (let ((?x2607 (* 15.0 |v16:1|)))
 (let ((?x4737 (* ?x749 |v4:13|)))
 (let ((?x4382 (+ (+ (+ (+ (* 10.0 |v15:2|) (* 20.0 |v0:17|)) (* 12.0 |v15:2|)) ?x4737) ?x6627)))
 (let (($x3114 (and (<= (+ (+ ?x4382 ?x2607) ?x6023) 6.0) (<= (+ (+ ?x6301 ?x5240) ?x7543) ?x634))))
 (let ((?x3081 (* 13.0 |v0:17|)))
 (let ((?x4088 (* 18.0 |v4:13|)))
 (let ((?x7495 (+ (+ (+ (+ (* ?x4907 ?x713) (* ?x2025 |v16:1|)) (* ?x5584 |v12:5|)) ?x7320) ?x1420)))
 (let ((?x7250 (* 16.0 |v0:17|)))
 (let ((?x3270 (+ (+ (+ (+ ?x3949 (* 2.0 |v17:0|)) (* ?x5584 |v13:4|)) (* ?x5584 ?x2621)) ?x7250)))
 (let (($x4014 (or (<= (+ (+ ?x3270 ?x141) (* ?x634 ?x713)) ?x323) (<= (+ (+ ?x7495 ?x4088) ?x3081) ?x749))))
 (let (($x8745 (and (and (and $x4014 $x3114) (<= (+ ?x4580 ?x1744) ?x1676)) (and $x5096 (or $x1315 (and (<= (+ ?x2857 ?x3036) ?x5263) (<= ?x5135 ?x1457)))))))
 (let (($x4184 (not (= |v6:11_st| (RMk1 val!9095)))))
 (let (($x3947 (not (= |v7:10_st| (RMk1 val!9094)))))
 (let (($x3746 (not (= |v8:9_st| (RMk1 val!9093)))))
 (let (($x3505 (not (= |v9:8_st| (RMk1 val!9092)))))
 (let (($x1202 (not (= |v10:7_st| (RMk1 val!9091)))))
 (let (($x2351 (not (= |v11:6_st| (RMk1 val!9090)))))
 (and $x2351 $x1202 $x3505 $x3746 $x3947 $x4184 (or (and (or $x8745 $x495) (or $x932 $x5812)) $x4440)))))))))))))))))))))))))))))))))))))))))))))))))))))))))))))))))))))))))))))))))))))))))))))))))))))))))))))))))))))))))))))))))))))))))))))))))))))))))))))))))))))))))))))))))))))))))))))))))))))))))))))))))))))))))))))))))))))))))))))))))))))))))))))))))))))))))))))))))))))))))))))))))))))))))))))))))))))))))))))))))))))))))))))))))))))))))))))))))))))))))))
 )
 )
 )
 )
 )
 )
 )
 )
 )
 )
 )
 )
 )
 )
 )
 )
 )
 )
(check-sat)
